50	100	100	100
65	91	96
82	64	62
77	96	68
94	95	56
98	67	50
85	73	88
68	89	89
88	68	84
70	50	69
63	52	87
99	74	67
67	63	96
52	55	72
86	99	72
52	50	87
71	95	61
93	60	96
84	99	62
75	95	56
58	75	56
81	71	74
99	54	81
79	84	71
91	64	52
81	98	58
61	83	93
96	78	84
63	94	64
56	55	81
95	51	50
79	86	78
57	88	87
98	70	79
73	74	86
68	94	92
72	51	50
61	80	97
67	81	94
70	72	54
73	54	78
66	97	90
63	93	81
78	66	96
63	93	96
82	81	98
75	84	51
99	91	69
59	91	70
67	67	80
85	76	51
